
Gurobi 9.1.2 (win64) logging started Tue Dec  7 10:43:51 2021

Gurobi Optimizer version 9.1.2 build v9.1.2rc0 (win64)
Thread count: 8 physical cores, 8 logical processors, using up to 8 threads
Optimize a model with 1 rows, 15 columns and 14 nonzeros
Model fingerprint: 0xbb6f01ae
Variable types: 1 continuous, 14 integer (14 binary)
Coefficient statistics:
  Matrix range     [2e+00, 9e+00]
  Objective range  [1e+00, 1e+00]
  Bounds range     [2e-01, 2e-01]
  RHS range        [1e+01, 1e+01]
Found heuristic solution: objective -0.1568198

Explored 0 nodes (0 simplex iterations) in 14.17 seconds
Thread count was 1 (of 8 available processors)

Solution count 1: -0.15682 

Optimal solution found (tolerance 1.00e-04)
Best objective -1.568197513593e-01, best bound -1.568197513593e-01, gap 0.0000%

User-callback calls 24, time in user-callback 18.09 sec
